p cnf 270 562
121 0
-1 121 0
1 -121 0
122 0
-2 122 0
2 -122 0
123 0
-3 123 0
3 -123 0
124 0
-4 124 0
4 -124 0
125 0
-5 125 0
5 -125 0
126 0
-6 126 0
6 -126 0
127 0
-7 127 0
7 -127 0
128 0
-8 128 0
8 -128 0
129 0
-9 129 0
9 -129 0
130 0
-10 130 0
10 -130 0
131 0
-11 131 0
11 -131 0
132 0
-12 132 0
12 -132 0
133 0
-13 133 0
13 -133 0
134 0
-14 134 0
14 -134 0
135 0
-15 135 0
15 -135 0
136 0
-16 136 0
16 -136 0
137 0
-17 137 0
17 -137 0
138 0
-18 138 0
18 -138 0
139 0
-19 139 0
19 -139 0
140 0
-20 140 0
20 -140 0
141 0
-21 141 0
21 -141 0
142 0
-22 142 0
22 -142 0
143 0
-23 143 0
23 -143 0
144 0
-24 144 0
24 -144 0
145 0
-25 145 0
25 -145 0
146 0
-26 146 0
26 -146 0
147 0
-27 147 0
27 -147 0
148 0
-28 148 0
28 -148 0
149 0
-29 149 0
29 -149 0
150 0
-30 150 0
30 -150 0
151 0
-31 151 0
31 -151 0
152 0
-32 152 0
32 -152 0
153 0
-33 153 0
33 -153 0
154 0
-34 154 0
34 -154 0
155 0
-35 155 0
35 -155 0
156 0
-36 156 0
36 -156 0
157 0
-37 157 0
37 -157 0
158 0
-38 158 0
38 -158 0
159 -64 -51 0
-159 64 0
-159 51 0
160 -118 0
-160 118 0
-40 159 160 0
40 -159 0
40 -160 0
161 -106 0
-161 106 0
162 -74 -48 0
-162 74 0
-162 48 0
-42 161 162 0
42 -161 0
42 -162 0
163 -107 0
-163 107 0
164 -62 -54 0
-164 62 0
-164 54 0
-44 163 164 0
44 -163 0
44 -164 0
165 -83 -102 0
-165 83 0
-165 102 0
166 -65 -94 0
-166 65 0
-166 94 0
167 -81 -101 0
-167 81 0
-167 101 0
168 -98 0
-168 98 0
-46 165 166 167 168 0
46 -165 0
46 -166 0
46 -167 0
46 -168 0
169 -108 0
-169 108 0
170 -84 -40 0
-170 84 0
-170 40 0
-48 169 170 0
48 -169 0
48 -170 0
171 -59 -97 0
-171 59 0
-171 97 0
172 -87 0
-172 87 0
173 -79 -95 0
-173 79 0
-173 95 0
174 -63 -96 0
-174 63 0
-174 96 0
175 -66 -94 0
-175 66 0
-175 94 0
176 -75 -93 0
-176 75 0
-176 93 0
-49 171 172 173 174 175 176 0
49 -171 0
49 -172 0
49 -173 0
49 -174 0
49 -175 0
49 -176 0
177 -78 -46 0
-177 78 0
-177 46 0
178 -94 0
-178 94 0
179 -70 -49 0
-179 70 0
-179 49 0
180 -85 -118 0
-180 85 0
-180 118 0
181 -60 -110 0
-181 60 0
-181 110 0
-51 177 178 179 180 181 0
51 -177 0
51 -178 0
51 -179 0
51 -180 0
51 -181 0
182 -86 -40 0
-182 86 0
-182 40 0
183 -109 0
-183 109 0
-54 182 183 0
54 -182 0
54 -183 0
184 -67 -51 0
-184 67 0
-184 51 0
185 -110 0
-185 110 0
-56 184 185 0
56 -184 0
56 -185 0
186 -57 0
-186 57 0
-58 186 0
58 -186 0
187 -75 -88 0
-187 75 0
-187 88 0
188 -79 -90 0
-188 79 0
-188 90 0
189 -59 -92 0
-189 59 0
-189 92 0
190 -50 0
-190 50 0
191 -63 -91 0
-191 63 0
-191 91 0
192 -66 -89 0
-192 66 0
-192 89 0
-87 187 188 189 190 191 192 0
87 -187 0
87 -188 0
87 -189 0
87 -190 0
87 -191 0
87 -192 0
193 -84 -100 0
-193 84 0
-193 100 0
194 -112 0
-194 112 0
-88 193 194 0
88 -193 0
88 -194 0
195 -85 -100 0
-195 85 0
-195 100 0
196 -119 0
-196 119 0
-89 195 196 0
89 -195 0
89 -196 0
197 -111 0
-197 111 0
198 -62 -91 0
-198 62 0
-198 91 0
-90 197 198 0
90 -197 0
90 -198 0
199 -120 0
-199 120 0
200 -86 -100 0
-200 86 0
-200 100 0
-91 199 200 0
91 -199 0
91 -200 0
201 -67 -89 0
-201 67 0
-201 89 0
202 -113 0
-202 113 0
-92 201 202 0
92 -201 0
92 -202 0
203 -84 -102 0
-203 84 0
-203 102 0
204 -114 0
-204 114 0
-93 203 204 0
93 -203 0
93 -204 0
205 -115 0
-205 115 0
206 -85 -102 0
-206 85 0
-206 102 0
-94 205 206 0
94 -205 0
94 -206 0
207 -116 0
-207 116 0
208 -62 -96 0
-208 62 0
-208 96 0
-95 207 208 0
95 -207 0
95 -208 0
209 -86 -102 0
-209 86 0
-209 102 0
210 -117 0
-210 117 0
-96 209 210 0
96 -209 0
96 -210 0
211 -67 -94 0
-211 67 0
-211 94 0
212 -103 0
-212 103 0
-97 211 212 0
97 -211 0
97 -212 0
213 -45 0
-213 45 0
214 -83 -100 0
-214 83 0
-214 100 0
215 -65 -89 0
-215 65 0
-215 89 0
216 -81 -99 0
-216 81 0
-216 99 0
-98 213 214 215 216 0
98 -213 0
98 -214 0
98 -215 0
98 -216 0
217 -74 -88 0
-217 74 0
-217 88 0
218 -104 0
-218 104 0
-99 217 218 0
99 -217 0
99 -218 0
219 -39 0
-219 39 0
220 -73 -112 0
-220 73 0
-220 112 0
221 -61 -120 0
-221 61 0
-221 120 0
222 -64 -119 0
-222 64 0
-222 119 0
-100 219 220 221 222 0
100 -219 0
100 -220 0
100 -221 0
100 -222 0
223 -74 -93 0
-223 74 0
-223 93 0
224 -105 0
-224 105 0
-101 223 224 0
101 -223 0
101 -224 0
225 -61 -117 0
-225 61 0
-225 117 0
226 -73 -114 0
-226 73 0
-226 114 0
227 -64 -115 0
-227 64 0
-227 115 0
228 -100 0
-228 100 0
229 -76 -98 0
-229 76 0
-229 98 0
-102 225 226 227 228 229 0
102 -225 0
102 -226 0
102 -227 0
102 -228 0
102 -229 0
230 -92 0
-230 92 0
231 -72 -87 0
-231 72 0
-231 87 0
-103 230 231 0
103 -230 0
103 -231 0
232 -41 0
-232 41 0
-104 232 0
104 -232 0
233 -99 0
-233 99 0
234 -77 -98 0
-234 77 0
-234 98 0
-105 233 234 0
105 -233 0
105 -234 0
235 -77 -46 0
-235 77 0
-235 46 0
236 -101 0
-236 101 0
-106 235 236 0
106 -235 0
106 -236 0
237 -68 -49 0
-237 68 0
-237 49 0
238 -95 0
-238 95 0
-107 237 238 0
107 -237 0
107 -238 0
239 -69 -49 0
-239 69 0
-239 49 0
240 -93 0
-240 93 0
241 -82 -106 0
-241 82 0
-241 106 0
-108 239 240 241 0
108 -239 0
108 -240 0
108 -241 0
242 -80 -107 0
-242 80 0
-242 107 0
243 -96 0
-243 96 0
244 -71 -49 0
-244 71 0
-244 49 0
-109 242 243 244 0
109 -242 0
109 -243 0
109 -244 0
245 -97 0
-245 97 0
246 -72 -49 0
-246 72 0
-246 49 0
-110 245 246 0
110 -245 0
110 -246 0
247 -43 0
-247 43 0
-111 247 0
111 -247 0
248 -47 0
-248 47 0
249 -82 -104 0
-249 82 0
-249 104 0
-112 248 249 0
112 -248 0
112 -249 0
250 -55 0
-250 55 0
-113 250 0
113 -250 0
251 -82 -105 0
-251 82 0
-251 105 0
252 -88 0
-252 88 0
253 -69 -87 0
-253 69 0
-253 87 0
-114 251 252 253 0
114 -251 0
114 -252 0
114 -253 0
254 -60 -103 0
-254 60 0
-254 103 0
255 -70 -87 0
-255 70 0
-255 87 0
256 -89 0
-256 89 0
257 -78 -98 0
-257 78 0
-257 98 0
-115 254 255 256 257 0
115 -254 0
115 -255 0
115 -256 0
115 -257 0
258 -68 -87 0
-258 68 0
-258 87 0
259 -90 0
-259 90 0
-116 258 259 0
116 -258 0
116 -259 0
260 -80 -116 0
-260 80 0
-260 116 0
261 -71 -87 0
-261 71 0
-261 87 0
262 -91 0
-262 91 0
-117 260 261 262 0
117 -260 0
117 -261 0
117 -262 0
263 -76 -46 0
-263 76 0
-263 46 0
264 -61 -109 0
-264 61 0
-264 109 0
265 -73 -108 0
-265 73 0
-265 108 0
266 -102 0
-266 102 0
-118 263 264 265 266 0
118 -263 0
118 -264 0
118 -265 0
118 -266 0
267 -52 0
-267 52 0
268 -60 -113 0
-268 60 0
-268 113 0
-119 267 268 0
119 -267 0
119 -268 0
269 -80 -111 0
-269 80 0
-269 111 0
270 -53 0
-270 53 0
-120 269 270 0
120 -269 0
120 -270 0
c p weight 1 1.0;1.0;1.0;1.0;1.0;1.0;1.0;1.0;1.0;1.0 0
c p weight -1 1.0;1.0;1.0;1.0;1.0;1.0;1.0;1.0;1.0;1.0 0
c p weight 2 1.0;1.0;1.0;1.0;1.0;1.0;1.0;1.0;1.0;1.0 0
c p weight -2 1.0;1.0;1.0;1.0;1.0;1.0;1.0;1.0;1.0;1.0 0
c p weight 3 1.0;1.0;1.0;1.0;1.0;1.0;1.0;1.0;1.0;1.0 0
c p weight -3 1.0;1.0;1.0;1.0;1.0;1.0;1.0;1.0;1.0;1.0 0
c p weight 4 1.0;1.0;1.0;1.0;1.0;1.0;1.0;1.0;1.0;1.0 0
c p weight -4 1.0;1.0;1.0;1.0;1.0;1.0;1.0;1.0;1.0;1.0 0
c p weight 5 1.0;1.0;1.0;1.0;1.0;1.0;1.0;1.0;1.0;1.0 0
c p weight -5 1.0;1.0;1.0;1.0;1.0;1.0;1.0;1.0;1.0;1.0 0
c p weight 6 1.0;1.0;1.0;1.0;1.0;1.0;1.0;1.0;1.0;1.0 0
c p weight -6 1.0;1.0;1.0;1.0;1.0;1.0;1.0;1.0;1.0;1.0 0
c p weight 7 1.0;1.0;1.0;1.0;1.0;1.0;1.0;1.0;1.0;1.0 0
c p weight -7 1.0;1.0;1.0;1.0;1.0;1.0;1.0;1.0;1.0;1.0 0
c p weight 8 1.0;1.0;1.0;1.0;1.0;1.0;1.0;1.0;1.0;1.0 0
c p weight -8 1.0;1.0;1.0;1.0;1.0;1.0;1.0;1.0;1.0;1.0 0
c p weight 9 1.0;1.0;1.0;1.0;1.0;1.0;1.0;1.0;1.0;1.0 0
c p weight -9 1.0;1.0;1.0;1.0;1.0;1.0;1.0;1.0;1.0;1.0 0
c p weight 10 1.0;1.0;1.0;1.0;1.0;1.0;1.0;1.0;1.0;1.0 0
c p weight -10 1.0;1.0;1.0;1.0;1.0;1.0;1.0;1.0;1.0;1.0 0
c p weight 11 1.0;1.0;1.0;1.0;1.0;1.0;1.0;1.0;1.0;1.0 0
c p weight -11 1.0;1.0;1.0;1.0;1.0;1.0;1.0;1.0;1.0;1.0 0
c p weight 12 1.0;1.0;1.0;1.0;1.0;1.0;1.0;1.0;1.0;1.0 0
c p weight -12 1.0;1.0;1.0;1.0;1.0;1.0;1.0;1.0;1.0;1.0 0
c p weight 13 1.0;1.0;1.0;1.0;1.0;1.0;1.0;1.0;1.0;1.0 0
c p weight -13 1.0;1.0;1.0;1.0;1.0;1.0;1.0;1.0;1.0;1.0 0
c p weight 14 1.0;1.0;1.0;1.0;1.0;1.0;1.0;1.0;1.0;1.0 0
c p weight -14 1.0;1.0;1.0;1.0;1.0;1.0;1.0;1.0;1.0;1.0 0
c p weight 15 1.0;1.0;1.0;1.0;1.0;1.0;1.0;1.0;1.0;1.0 0
c p weight -15 1.0;1.0;1.0;1.0;1.0;1.0;1.0;1.0;1.0;1.0 0
c p weight 16 1.0;1.0;1.0;1.0;1.0;1.0;1.0;1.0;1.0;1.0 0
c p weight -16 1.0;1.0;1.0;1.0;1.0;1.0;1.0;1.0;1.0;1.0 0
c p weight 17 1.0;1.0;1.0;1.0;1.0;1.0;1.0;1.0;1.0;1.0 0
c p weight -17 1.0;1.0;1.0;1.0;1.0;1.0;1.0;1.0;1.0;1.0 0
c p weight 18 1.0;1.0;1.0;1.0;1.0;1.0;1.0;1.0;1.0;1.0 0
c p weight -18 1.0;1.0;1.0;1.0;1.0;1.0;1.0;1.0;1.0;1.0 0
c p weight 19 1.0;1.0;1.0;1.0;1.0;1.0;1.0;1.0;1.0;1.0 0
c p weight -19 1.0;1.0;1.0;1.0;1.0;1.0;1.0;1.0;1.0;1.0 0
c p weight 20 1.0;1.0;1.0;1.0;1.0;1.0;1.0;1.0;1.0;1.0 0
c p weight -20 1.0;1.0;1.0;1.0;1.0;1.0;1.0;1.0;1.0;1.0 0
c p weight 21 1.0;1.0;1.0;1.0;1.0;1.0;1.0;1.0;1.0;1.0 0
c p weight -21 1.0;1.0;1.0;1.0;1.0;1.0;1.0;1.0;1.0;1.0 0
c p weight 22 1.0;1.0;1.0;1.0;1.0;1.0;1.0;1.0;1.0;1.0 0
c p weight -22 1.0;1.0;1.0;1.0;1.0;1.0;1.0;1.0;1.0;1.0 0
c p weight 23 1.0;1.0;1.0;1.0;1.0;1.0;1.0;1.0;1.0;1.0 0
c p weight -23 1.0;1.0;1.0;1.0;1.0;1.0;1.0;1.0;1.0;1.0 0
c p weight 24 1.0;1.0;1.0;1.0;1.0;1.0;1.0;1.0;1.0;1.0 0
c p weight -24 1.0;1.0;1.0;1.0;1.0;1.0;1.0;1.0;1.0;1.0 0
c p weight 25 1.0;1.0;1.0;1.0;1.0;1.0;1.0;1.0;1.0;1.0 0
c p weight -25 1.0;1.0;1.0;1.0;1.0;1.0;1.0;1.0;1.0;1.0 0
c p weight 26 1.0;1.0;1.0;1.0;1.0;1.0;1.0;1.0;1.0;1.0 0
c p weight -26 1.0;1.0;1.0;1.0;1.0;1.0;1.0;1.0;1.0;1.0 0
c p weight 27 1.0;1.0;1.0;1.0;1.0;1.0;1.0;1.0;1.0;1.0 0
c p weight -27 1.0;1.0;1.0;1.0;1.0;1.0;1.0;1.0;1.0;1.0 0
c p weight 28 1.0;1.0;1.0;1.0;1.0;1.0;1.0;1.0;1.0;1.0 0
c p weight -28 1.0;1.0;1.0;1.0;1.0;1.0;1.0;1.0;1.0;1.0 0
c p weight 29 1.0;1.0;1.0;1.0;1.0;1.0;1.0;1.0;1.0;1.0 0
c p weight -29 1.0;1.0;1.0;1.0;1.0;1.0;1.0;1.0;1.0;1.0 0
c p weight 30 1.0;1.0;1.0;1.0;1.0;1.0;1.0;1.0;1.0;1.0 0
c p weight -30 1.0;1.0;1.0;1.0;1.0;1.0;1.0;1.0;1.0;1.0 0
c p weight 31 1.0;1.0;1.0;1.0;1.0;1.0;1.0;1.0;1.0;1.0 0
c p weight -31 1.0;1.0;1.0;1.0;1.0;1.0;1.0;1.0;1.0;1.0 0
c p weight 32 1.0;1.0;1.0;1.0;1.0;1.0;1.0;1.0;1.0;1.0 0
c p weight -32 1.0;1.0;1.0;1.0;1.0;1.0;1.0;1.0;1.0;1.0 0
c p weight 33 1.0;1.0;1.0;1.0;1.0;1.0;1.0;1.0;1.0;1.0 0
c p weight -33 1.0;1.0;1.0;1.0;1.0;1.0;1.0;1.0;1.0;1.0 0
c p weight 34 1.0;1.0;1.0;1.0;1.0;1.0;1.0;1.0;1.0;1.0 0
c p weight -34 1.0;1.0;1.0;1.0;1.0;1.0;1.0;1.0;1.0;1.0 0
c p weight 35 1.0;1.0;1.0;1.0;1.0;1.0;1.0;1.0;1.0;1.0 0
c p weight -35 1.0;1.0;1.0;1.0;1.0;1.0;1.0;1.0;1.0;1.0 0
c p weight 36 1.0;1.0;1.0;1.0;1.0;1.0;1.0;1.0;1.0;1.0 0
c p weight -36 1.0;1.0;1.0;1.0;1.0;1.0;1.0;1.0;1.0;1.0 0
c p weight 37 1.0;1.0;1.0;1.0;1.0;1.0;1.0;1.0;1.0;1.0 0
c p weight -37 1.0;1.0;1.0;1.0;1.0;1.0;1.0;1.0;1.0;1.0 0
c p weight 38 1.0;1.0;1.0;1.0;1.0;1.0;1.0;1.0;1.0;1.0 0
c p weight -38 1.0;1.0;1.0;1.0;1.0;1.0;1.0;1.0;1.0;1.0 0
c p weight 39 0.5;0.5;0.5;0.5;0.5;0.5;0.5;0.5;0.5;0.5 0
c p weight -39 0.5;0.5;0.5;0.5;0.5;0.5;0.5;0.5;0.5;0.5 0
c p weight 40 1.0;1.0;1.0;1.0;1.0;1.0;1.0;1.0;1.0;1.0 0
c p weight -40 0.0;1.0;1.0;1.0;1.0;1.0;1.0;1.0;1.0;1.0 0
c p weight 41 0.5;0.5;0.5;0.5;0.5;0.5;0.5;0.5;0.5;0.5 0
c p weight -41 0.5;0.5;0.5;0.5;0.5;0.5;0.5;0.5;0.5;0.5 0
c p weight 42 1.0;1.0;1.0;1.0;1.0;1.0;1.0;1.0;1.0;1.0 0
c p weight -42 1.0;0.0;1.0;1.0;1.0;1.0;1.0;1.0;1.0;1.0 0
c p weight 43 0.5;0.5;0.5;0.5;0.5;0.5;0.5;0.5;0.5;0.5 0
c p weight -43 0.5;0.5;0.5;0.5;0.5;0.5;0.5;0.5;0.5;0.5 0
c p weight 44 1.0;1.0;1.0;1.0;1.0;1.0;1.0;1.0;1.0;1.0 0
c p weight -44 1.0;1.0;0.0;1.0;1.0;1.0;1.0;1.0;1.0;1.0 0
c p weight 45 0.5;0.5;0.5;0.5;0.5;0.5;0.5;0.5;0.5;0.5 0
c p weight -45 0.5;0.5;0.5;0.5;0.5;0.5;0.5;0.5;0.5;0.5 0
c p weight 46 1.0;1.0;1.0;1.0;1.0;1.0;1.0;1.0;1.0;1.0 0
c p weight -46 1.0;1.0;1.0;0.0;1.0;1.0;1.0;1.0;1.0;1.0 0
c p weight 47 0.5;0.5;0.5;0.5;0.5;0.5;0.5;0.5;0.5;0.5 0
c p weight -47 0.5;0.5;0.5;0.5;0.5;0.5;0.5;0.5;0.5;0.5 0
c p weight 48 1.0;1.0;1.0;1.0;1.0;1.0;1.0;1.0;1.0;1.0 0
c p weight -48 1.0;1.0;1.0;1.0;0.0;1.0;1.0;1.0;1.0;1.0 0
c p weight 49 1.0;1.0;1.0;1.0;1.0;1.0;1.0;1.0;1.0;1.0 0
c p weight -49 1.0;1.0;1.0;1.0;1.0;0.0;1.0;1.0;1.0;1.0 0
c p weight 50 0.5;0.5;0.5;0.5;0.5;0.5;0.5;0.5;0.5;0.5 0
c p weight -50 0.5;0.5;0.5;0.5;0.5;0.5;0.5;0.5;0.5;0.5 0
c p weight 51 1.0;1.0;1.0;1.0;1.0;1.0;1.0;1.0;1.0;1.0 0
c p weight -51 1.0;1.0;1.0;1.0;1.0;1.0;0.0;1.0;1.0;1.0 0
c p weight 52 0.5;0.5;0.5;0.5;0.5;0.5;0.5;0.5;0.5;0.5 0
c p weight -52 0.5;0.5;0.5;0.5;0.5;0.5;0.5;0.5;0.5;0.5 0
c p weight 53 0.5;0.5;0.5;0.5;0.5;0.5;0.5;0.5;0.5;0.5 0
c p weight -53 0.5;0.5;0.5;0.5;0.5;0.5;0.5;0.5;0.5;0.5 0
c p weight 54 1.0;1.0;1.0;1.0;1.0;1.0;1.0;1.0;1.0;1.0 0
c p weight -54 1.0;1.0;1.0;1.0;1.0;1.0;1.0;0.0;1.0;1.0 0
c p weight 55 0.5;0.5;0.5;0.5;0.5;0.5;0.5;0.5;0.5;0.5 0
c p weight -55 0.5;0.5;0.5;0.5;0.5;0.5;0.5;0.5;0.5;0.5 0
c p weight 56 1.0;1.0;1.0;1.0;1.0;1.0;1.0;1.0;1.0;1.0 0
c p weight -56 1.0;1.0;1.0;1.0;1.0;1.0;1.0;1.0;0.0;1.0 0
c p weight 57 0.5;0.5;0.5;0.5;0.5;0.5;0.5;0.5;0.5;0.5 0
c p weight -57 0.5;0.5;0.5;0.5;0.5;0.5;0.5;0.5;0.5;0.5 0
c p weight 58 1.0;1.0;1.0;1.0;1.0;1.0;1.0;1.0;1.0;1.0 0
c p weight -58 1.0;1.0;1.0;1.0;1.0;1.0;1.0;1.0;1.0;0.0 0
c p weight 59 0.5;0.5;0.5;0.5;0.5;0.5;0.5;0.5;0.5;0.5 0
c p weight -59 0.5;0.5;0.5;0.5;0.5;0.5;0.5;0.5;0.5;0.5 0
c p weight 60 0.5;0.5;0.5;0.5;0.5;0.5;0.5;0.5;0.5;0.5 0
c p weight -60 0.5;0.5;0.5;0.5;0.5;0.5;0.5;0.5;0.5;0.5 0
c p weight 61 0.5;0.5;0.5;0.5;0.5;0.5;0.5;0.5;0.5;0.5 0
c p weight -61 0.5;0.5;0.5;0.5;0.5;0.5;0.5;0.5;0.5;0.5 0
c p weight 62 0.5;0.5;0.5;0.5;0.5;0.5;0.5;0.5;0.5;0.5 0
c p weight -62 0.5;0.5;0.5;0.5;0.5;0.5;0.5;0.5;0.5;0.5 0
c p weight 63 0.5;0.5;0.5;0.5;0.5;0.5;0.5;0.5;0.5;0.5 0
c p weight -63 0.5;0.5;0.5;0.5;0.5;0.5;0.5;0.5;0.5;0.5 0
c p weight 64 0.5;0.5;0.5;0.5;0.5;0.5;0.5;0.5;0.5;0.5 0
c p weight -64 0.5;0.5;0.5;0.5;0.5;0.5;0.5;0.5;0.5;0.5 0
c p weight 65 0.5;0.5;0.5;0.5;0.5;0.5;0.5;0.5;0.5;0.5 0
c p weight -65 0.5;0.5;0.5;0.5;0.5;0.5;0.5;0.5;0.5;0.5 0
c p weight 66 0.5;0.5;0.5;0.5;0.5;0.5;0.5;0.5;0.5;0.5 0
c p weight -66 0.5;0.5;0.5;0.5;0.5;0.5;0.5;0.5;0.5;0.5 0
c p weight 67 0.5;0.5;0.5;0.5;0.5;0.5;0.5;0.5;0.5;0.5 0
c p weight -67 0.5;0.5;0.5;0.5;0.5;0.5;0.5;0.5;0.5;0.5 0
c p weight 68 0.5;0.5;0.5;0.5;0.5;0.5;0.5;0.5;0.5;0.5 0
c p weight -68 0.5;0.5;0.5;0.5;0.5;0.5;0.5;0.5;0.5;0.5 0
c p weight 69 0.5;0.5;0.5;0.5;0.5;0.5;0.5;0.5;0.5;0.5 0
c p weight -69 0.5;0.5;0.5;0.5;0.5;0.5;0.5;0.5;0.5;0.5 0
c p weight 70 0.5;0.5;0.5;0.5;0.5;0.5;0.5;0.5;0.5;0.5 0
c p weight -70 0.5;0.5;0.5;0.5;0.5;0.5;0.5;0.5;0.5;0.5 0
c p weight 71 0.5;0.5;0.5;0.5;0.5;0.5;0.5;0.5;0.5;0.5 0
c p weight -71 0.5;0.5;0.5;0.5;0.5;0.5;0.5;0.5;0.5;0.5 0
c p weight 72 0.5;0.5;0.5;0.5;0.5;0.5;0.5;0.5;0.5;0.5 0
c p weight -72 0.5;0.5;0.5;0.5;0.5;0.5;0.5;0.5;0.5;0.5 0
c p weight 73 0.5;0.5;0.5;0.5;0.5;0.5;0.5;0.5;0.5;0.5 0
c p weight -73 0.5;0.5;0.5;0.5;0.5;0.5;0.5;0.5;0.5;0.5 0
c p weight 74 0.5;0.5;0.5;0.5;0.5;0.5;0.5;0.5;0.5;0.5 0
c p weight -74 0.5;0.5;0.5;0.5;0.5;0.5;0.5;0.5;0.5;0.5 0
c p weight 75 0.5;0.5;0.5;0.5;0.5;0.5;0.5;0.5;0.5;0.5 0
c p weight -75 0.5;0.5;0.5;0.5;0.5;0.5;0.5;0.5;0.5;0.5 0
c p weight 76 0.5;0.5;0.5;0.5;0.5;0.5;0.5;0.5;0.5;0.5 0
c p weight -76 0.5;0.5;0.5;0.5;0.5;0.5;0.5;0.5;0.5;0.5 0
c p weight 77 0.5;0.5;0.5;0.5;0.5;0.5;0.5;0.5;0.5;0.5 0
c p weight -77 0.5;0.5;0.5;0.5;0.5;0.5;0.5;0.5;0.5;0.5 0
c p weight 78 0.5;0.5;0.5;0.5;0.5;0.5;0.5;0.5;0.5;0.5 0
c p weight -78 0.5;0.5;0.5;0.5;0.5;0.5;0.5;0.5;0.5;0.5 0
c p weight 79 0.5;0.5;0.5;0.5;0.5;0.5;0.5;0.5;0.5;0.5 0
c p weight -79 0.5;0.5;0.5;0.5;0.5;0.5;0.5;0.5;0.5;0.5 0
c p weight 80 0.5;0.5;0.5;0.5;0.5;0.5;0.5;0.5;0.5;0.5 0
c p weight -80 0.5;0.5;0.5;0.5;0.5;0.5;0.5;0.5;0.5;0.5 0
c p weight 81 0.5;0.5;0.5;0.5;0.5;0.5;0.5;0.5;0.5;0.5 0
c p weight -81 0.5;0.5;0.5;0.5;0.5;0.5;0.5;0.5;0.5;0.5 0
c p weight 82 0.5;0.5;0.5;0.5;0.5;0.5;0.5;0.5;0.5;0.5 0
c p weight -82 0.5;0.5;0.5;0.5;0.5;0.5;0.5;0.5;0.5;0.5 0
c p weight 83 0.5;0.5;0.5;0.5;0.5;0.5;0.5;0.5;0.5;0.5 0
c p weight -83 0.5;0.5;0.5;0.5;0.5;0.5;0.5;0.5;0.5;0.5 0
c p weight 84 0.5;0.5;0.5;0.5;0.5;0.5;0.5;0.5;0.5;0.5 0
c p weight -84 0.5;0.5;0.5;0.5;0.5;0.5;0.5;0.5;0.5;0.5 0
c p weight 85 0.5;0.5;0.5;0.5;0.5;0.5;0.5;0.5;0.5;0.5 0
c p weight -85 0.5;0.5;0.5;0.5;0.5;0.5;0.5;0.5;0.5;0.5 0
c p weight 86 0.5;0.5;0.5;0.5;0.5;0.5;0.5;0.5;0.5;0.5 0
c p weight -86 0.5;0.5;0.5;0.5;0.5;0.5;0.5;0.5;0.5;0.5 0
c p weight 87 1.0;1.0;1.0;1.0;1.0;1.0;1.0;1.0;1.0;1.0 0
c p weight -87 1.0;1.0;1.0;1.0;1.0;1.0;1.0;1.0;1.0;1.0 0
c p weight 88 1.0;1.0;1.0;1.0;1.0;1.0;1.0;1.0;1.0;1.0 0
c p weight -88 1.0;1.0;1.0;1.0;1.0;1.0;1.0;1.0;1.0;1.0 0
c p weight 89 1.0;1.0;1.0;1.0;1.0;1.0;1.0;1.0;1.0;1.0 0
c p weight -89 1.0;1.0;1.0;1.0;1.0;1.0;1.0;1.0;1.0;1.0 0
c p weight 90 1.0;1.0;1.0;1.0;1.0;1.0;1.0;1.0;1.0;1.0 0
c p weight -90 1.0;1.0;1.0;1.0;1.0;1.0;1.0;1.0;1.0;1.0 0
c p weight 91 1.0;1.0;1.0;1.0;1.0;1.0;1.0;1.0;1.0;1.0 0
c p weight -91 1.0;1.0;1.0;1.0;1.0;1.0;1.0;1.0;1.0;1.0 0
c p weight 92 1.0;1.0;1.0;1.0;1.0;1.0;1.0;1.0;1.0;1.0 0
c p weight -92 1.0;1.0;1.0;1.0;1.0;1.0;1.0;1.0;1.0;1.0 0
c p weight 93 1.0;1.0;1.0;1.0;1.0;1.0;1.0;1.0;1.0;1.0 0
c p weight -93 1.0;1.0;1.0;1.0;1.0;1.0;1.0;1.0;1.0;1.0 0
c p weight 94 1.0;1.0;1.0;1.0;1.0;1.0;1.0;1.0;1.0;1.0 0
c p weight -94 1.0;1.0;1.0;1.0;1.0;1.0;1.0;1.0;1.0;1.0 0
c p weight 95 1.0;1.0;1.0;1.0;1.0;1.0;1.0;1.0;1.0;1.0 0
c p weight -95 1.0;1.0;1.0;1.0;1.0;1.0;1.0;1.0;1.0;1.0 0
c p weight 96 1.0;1.0;1.0;1.0;1.0;1.0;1.0;1.0;1.0;1.0 0
c p weight -96 1.0;1.0;1.0;1.0;1.0;1.0;1.0;1.0;1.0;1.0 0
c p weight 97 1.0;1.0;1.0;1.0;1.0;1.0;1.0;1.0;1.0;1.0 0
c p weight -97 1.0;1.0;1.0;1.0;1.0;1.0;1.0;1.0;1.0;1.0 0
c p weight 98 1.0;1.0;1.0;1.0;1.0;1.0;1.0;1.0;1.0;1.0 0
c p weight -98 1.0;1.0;1.0;1.0;1.0;1.0;1.0;1.0;1.0;1.0 0
c p weight 99 1.0;1.0;1.0;1.0;1.0;1.0;1.0;1.0;1.0;1.0 0
c p weight -99 1.0;1.0;1.0;1.0;1.0;1.0;1.0;1.0;1.0;1.0 0
c p weight 100 1.0;1.0;1.0;1.0;1.0;1.0;1.0;1.0;1.0;1.0 0
c p weight -100 1.0;1.0;1.0;1.0;1.0;1.0;1.0;1.0;1.0;1.0 0
c p weight 101 1.0;1.0;1.0;1.0;1.0;1.0;1.0;1.0;1.0;1.0 0
c p weight -101 1.0;1.0;1.0;1.0;1.0;1.0;1.0;1.0;1.0;1.0 0
c p weight 102 1.0;1.0;1.0;1.0;1.0;1.0;1.0;1.0;1.0;1.0 0
c p weight -102 1.0;1.0;1.0;1.0;1.0;1.0;1.0;1.0;1.0;1.0 0
c p weight 103 1.0;1.0;1.0;1.0;1.0;1.0;1.0;1.0;1.0;1.0 0
c p weight -103 1.0;1.0;1.0;1.0;1.0;1.0;1.0;1.0;1.0;1.0 0
c p weight 104 1.0;1.0;1.0;1.0;1.0;1.0;1.0;1.0;1.0;1.0 0
c p weight -104 1.0;1.0;1.0;1.0;1.0;1.0;1.0;1.0;1.0;1.0 0
c p weight 105 1.0;1.0;1.0;1.0;1.0;1.0;1.0;1.0;1.0;1.0 0
c p weight -105 1.0;1.0;1.0;1.0;1.0;1.0;1.0;1.0;1.0;1.0 0
c p weight 106 1.0;1.0;1.0;1.0;1.0;1.0;1.0;1.0;1.0;1.0 0
c p weight -106 1.0;1.0;1.0;1.0;1.0;1.0;1.0;1.0;1.0;1.0 0
c p weight 107 1.0;1.0;1.0;1.0;1.0;1.0;1.0;1.0;1.0;1.0 0
c p weight -107 1.0;1.0;1.0;1.0;1.0;1.0;1.0;1.0;1.0;1.0 0
c p weight 108 1.0;1.0;1.0;1.0;1.0;1.0;1.0;1.0;1.0;1.0 0
c p weight -108 1.0;1.0;1.0;1.0;1.0;1.0;1.0;1.0;1.0;1.0 0
c p weight 109 1.0;1.0;1.0;1.0;1.0;1.0;1.0;1.0;1.0;1.0 0
c p weight -109 1.0;1.0;1.0;1.0;1.0;1.0;1.0;1.0;1.0;1.0 0
c p weight 110 1.0;1.0;1.0;1.0;1.0;1.0;1.0;1.0;1.0;1.0 0
c p weight -110 1.0;1.0;1.0;1.0;1.0;1.0;1.0;1.0;1.0;1.0 0
c p weight 111 1.0;1.0;1.0;1.0;1.0;1.0;1.0;1.0;1.0;1.0 0
c p weight -111 1.0;1.0;1.0;1.0;1.0;1.0;1.0;1.0;1.0;1.0 0
c p weight 112 1.0;1.0;1.0;1.0;1.0;1.0;1.0;1.0;1.0;1.0 0
c p weight -112 1.0;1.0;1.0;1.0;1.0;1.0;1.0;1.0;1.0;1.0 0
c p weight 113 1.0;1.0;1.0;1.0;1.0;1.0;1.0;1.0;1.0;1.0 0
c p weight -113 1.0;1.0;1.0;1.0;1.0;1.0;1.0;1.0;1.0;1.0 0
c p weight 114 1.0;1.0;1.0;1.0;1.0;1.0;1.0;1.0;1.0;1.0 0
c p weight -114 1.0;1.0;1.0;1.0;1.0;1.0;1.0;1.0;1.0;1.0 0
c p weight 115 1.0;1.0;1.0;1.0;1.0;1.0;1.0;1.0;1.0;1.0 0
c p weight -115 1.0;1.0;1.0;1.0;1.0;1.0;1.0;1.0;1.0;1.0 0
c p weight 116 1.0;1.0;1.0;1.0;1.0;1.0;1.0;1.0;1.0;1.0 0
c p weight -116 1.0;1.0;1.0;1.0;1.0;1.0;1.0;1.0;1.0;1.0 0
c p weight 117 1.0;1.0;1.0;1.0;1.0;1.0;1.0;1.0;1.0;1.0 0
c p weight -117 1.0;1.0;1.0;1.0;1.0;1.0;1.0;1.0;1.0;1.0 0
c p weight 118 1.0;1.0;1.0;1.0;1.0;1.0;1.0;1.0;1.0;1.0 0
c p weight -118 1.0;1.0;1.0;1.0;1.0;1.0;1.0;1.0;1.0;1.0 0
c p weight 119 1.0;1.0;1.0;1.0;1.0;1.0;1.0;1.0;1.0;1.0 0
c p weight -119 1.0;1.0;1.0;1.0;1.0;1.0;1.0;1.0;1.0;1.0 0
c p weight 120 1.0;1.0;1.0;1.0;1.0;1.0;1.0;1.0;1.0;1.0 0
c p weight -120 1.0;1.0;1.0;1.0;1.0;1.0;1.0;1.0;1.0;1.0 0
c p weight 121 1.0;1.0;1.0;1.0;1.0;1.0;1.0;1.0;1.0;1.0 0
c p weight -121 1.0;1.0;1.0;1.0;1.0;1.0;1.0;1.0;1.0;1.0 0
c p weight 122 1.0;1.0;1.0;1.0;1.0;1.0;1.0;1.0;1.0;1.0 0
c p weight -122 1.0;1.0;1.0;1.0;1.0;1.0;1.0;1.0;1.0;1.0 0
c p weight 123 1.0;1.0;1.0;1.0;1.0;1.0;1.0;1.0;1.0;1.0 0
c p weight -123 1.0;1.0;1.0;1.0;1.0;1.0;1.0;1.0;1.0;1.0 0
c p weight 124 1.0;1.0;1.0;1.0;1.0;1.0;1.0;1.0;1.0;1.0 0
c p weight -124 1.0;1.0;1.0;1.0;1.0;1.0;1.0;1.0;1.0;1.0 0
c p weight 125 1.0;1.0;1.0;1.0;1.0;1.0;1.0;1.0;1.0;1.0 0
c p weight -125 1.0;1.0;1.0;1.0;1.0;1.0;1.0;1.0;1.0;1.0 0
c p weight 126 1.0;1.0;1.0;1.0;1.0;1.0;1.0;1.0;1.0;1.0 0
c p weight -126 1.0;1.0;1.0;1.0;1.0;1.0;1.0;1.0;1.0;1.0 0
c p weight 127 1.0;1.0;1.0;1.0;1.0;1.0;1.0;1.0;1.0;1.0 0
c p weight -127 1.0;1.0;1.0;1.0;1.0;1.0;1.0;1.0;1.0;1.0 0
c p weight 128 1.0;1.0;1.0;1.0;1.0;1.0;1.0;1.0;1.0;1.0 0
c p weight -128 1.0;1.0;1.0;1.0;1.0;1.0;1.0;1.0;1.0;1.0 0
c p weight 129 1.0;1.0;1.0;1.0;1.0;1.0;1.0;1.0;1.0;1.0 0
c p weight -129 1.0;1.0;1.0;1.0;1.0;1.0;1.0;1.0;1.0;1.0 0
c p weight 130 1.0;1.0;1.0;1.0;1.0;1.0;1.0;1.0;1.0;1.0 0
c p weight -130 1.0;1.0;1.0;1.0;1.0;1.0;1.0;1.0;1.0;1.0 0
c p weight 131 1.0;1.0;1.0;1.0;1.0;1.0;1.0;1.0;1.0;1.0 0
c p weight -131 1.0;1.0;1.0;1.0;1.0;1.0;1.0;1.0;1.0;1.0 0
c p weight 132 1.0;1.0;1.0;1.0;1.0;1.0;1.0;1.0;1.0;1.0 0
c p weight -132 1.0;1.0;1.0;1.0;1.0;1.0;1.0;1.0;1.0;1.0 0
c p weight 133 1.0;1.0;1.0;1.0;1.0;1.0;1.0;1.0;1.0;1.0 0
c p weight -133 1.0;1.0;1.0;1.0;1.0;1.0;1.0;1.0;1.0;1.0 0
c p weight 134 1.0;1.0;1.0;1.0;1.0;1.0;1.0;1.0;1.0;1.0 0
c p weight -134 1.0;1.0;1.0;1.0;1.0;1.0;1.0;1.0;1.0;1.0 0
c p weight 135 1.0;1.0;1.0;1.0;1.0;1.0;1.0;1.0;1.0;1.0 0
c p weight -135 1.0;1.0;1.0;1.0;1.0;1.0;1.0;1.0;1.0;1.0 0
c p weight 136 1.0;1.0;1.0;1.0;1.0;1.0;1.0;1.0;1.0;1.0 0
c p weight -136 1.0;1.0;1.0;1.0;1.0;1.0;1.0;1.0;1.0;1.0 0
c p weight 137 1.0;1.0;1.0;1.0;1.0;1.0;1.0;1.0;1.0;1.0 0
c p weight -137 1.0;1.0;1.0;1.0;1.0;1.0;1.0;1.0;1.0;1.0 0
c p weight 138 1.0;1.0;1.0;1.0;1.0;1.0;1.0;1.0;1.0;1.0 0
c p weight -138 1.0;1.0;1.0;1.0;1.0;1.0;1.0;1.0;1.0;1.0 0
c p weight 139 1.0;1.0;1.0;1.0;1.0;1.0;1.0;1.0;1.0;1.0 0
c p weight -139 1.0;1.0;1.0;1.0;1.0;1.0;1.0;1.0;1.0;1.0 0
c p weight 140 1.0;1.0;1.0;1.0;1.0;1.0;1.0;1.0;1.0;1.0 0
c p weight -140 1.0;1.0;1.0;1.0;1.0;1.0;1.0;1.0;1.0;1.0 0
c p weight 141 1.0;1.0;1.0;1.0;1.0;1.0;1.0;1.0;1.0;1.0 0
c p weight -141 1.0;1.0;1.0;1.0;1.0;1.0;1.0;1.0;1.0;1.0 0
c p weight 142 1.0;1.0;1.0;1.0;1.0;1.0;1.0;1.0;1.0;1.0 0
c p weight -142 1.0;1.0;1.0;1.0;1.0;1.0;1.0;1.0;1.0;1.0 0
c p weight 143 1.0;1.0;1.0;1.0;1.0;1.0;1.0;1.0;1.0;1.0 0
c p weight -143 1.0;1.0;1.0;1.0;1.0;1.0;1.0;1.0;1.0;1.0 0
c p weight 144 1.0;1.0;1.0;1.0;1.0;1.0;1.0;1.0;1.0;1.0 0
c p weight -144 1.0;1.0;1.0;1.0;1.0;1.0;1.0;1.0;1.0;1.0 0
c p weight 145 1.0;1.0;1.0;1.0;1.0;1.0;1.0;1.0;1.0;1.0 0
c p weight -145 1.0;1.0;1.0;1.0;1.0;1.0;1.0;1.0;1.0;1.0 0
c p weight 146 1.0;1.0;1.0;1.0;1.0;1.0;1.0;1.0;1.0;1.0 0
c p weight -146 1.0;1.0;1.0;1.0;1.0;1.0;1.0;1.0;1.0;1.0 0
c p weight 147 1.0;1.0;1.0;1.0;1.0;1.0;1.0;1.0;1.0;1.0 0
c p weight -147 1.0;1.0;1.0;1.0;1.0;1.0;1.0;1.0;1.0;1.0 0
c p weight 148 1.0;1.0;1.0;1.0;1.0;1.0;1.0;1.0;1.0;1.0 0
c p weight -148 1.0;1.0;1.0;1.0;1.0;1.0;1.0;1.0;1.0;1.0 0
c p weight 149 1.0;1.0;1.0;1.0;1.0;1.0;1.0;1.0;1.0;1.0 0
c p weight -149 1.0;1.0;1.0;1.0;1.0;1.0;1.0;1.0;1.0;1.0 0
c p weight 150 1.0;1.0;1.0;1.0;1.0;1.0;1.0;1.0;1.0;1.0 0
c p weight -150 1.0;1.0;1.0;1.0;1.0;1.0;1.0;1.0;1.0;1.0 0
c p weight 151 1.0;1.0;1.0;1.0;1.0;1.0;1.0;1.0;1.0;1.0 0
c p weight -151 1.0;1.0;1.0;1.0;1.0;1.0;1.0;1.0;1.0;1.0 0
c p weight 152 1.0;1.0;1.0;1.0;1.0;1.0;1.0;1.0;1.0;1.0 0
c p weight -152 1.0;1.0;1.0;1.0;1.0;1.0;1.0;1.0;1.0;1.0 0
c p weight 153 1.0;1.0;1.0;1.0;1.0;1.0;1.0;1.0;1.0;1.0 0
c p weight -153 1.0;1.0;1.0;1.0;1.0;1.0;1.0;1.0;1.0;1.0 0
c p weight 154 1.0;1.0;1.0;1.0;1.0;1.0;1.0;1.0;1.0;1.0 0
c p weight -154 1.0;1.0;1.0;1.0;1.0;1.0;1.0;1.0;1.0;1.0 0
c p weight 155 1.0;1.0;1.0;1.0;1.0;1.0;1.0;1.0;1.0;1.0 0
c p weight -155 1.0;1.0;1.0;1.0;1.0;1.0;1.0;1.0;1.0;1.0 0
c p weight 156 1.0;1.0;1.0;1.0;1.0;1.0;1.0;1.0;1.0;1.0 0
c p weight -156 1.0;1.0;1.0;1.0;1.0;1.0;1.0;1.0;1.0;1.0 0
c p weight 157 1.0;1.0;1.0;1.0;1.0;1.0;1.0;1.0;1.0;1.0 0
c p weight -157 1.0;1.0;1.0;1.0;1.0;1.0;1.0;1.0;1.0;1.0 0
c p weight 158 1.0;1.0;1.0;1.0;1.0;1.0;1.0;1.0;1.0;1.0 0
c p weight -158 1.0;1.0;1.0;1.0;1.0;1.0;1.0;1.0;1.0;1.0 0
c p weight 159 1.0;1.0;1.0;1.0;1.0;1.0;1.0;1.0;1.0;1.0 0
c p weight -159 1.0;1.0;1.0;1.0;1.0;1.0;1.0;1.0;1.0;1.0 0
c p weight 160 1.0;1.0;1.0;1.0;1.0;1.0;1.0;1.0;1.0;1.0 0
c p weight -160 1.0;1.0;1.0;1.0;1.0;1.0;1.0;1.0;1.0;1.0 0
c p weight 161 1.0;1.0;1.0;1.0;1.0;1.0;1.0;1.0;1.0;1.0 0
c p weight -161 1.0;1.0;1.0;1.0;1.0;1.0;1.0;1.0;1.0;1.0 0
c p weight 162 1.0;1.0;1.0;1.0;1.0;1.0;1.0;1.0;1.0;1.0 0
c p weight -162 1.0;1.0;1.0;1.0;1.0;1.0;1.0;1.0;1.0;1.0 0
c p weight 163 1.0;1.0;1.0;1.0;1.0;1.0;1.0;1.0;1.0;1.0 0
c p weight -163 1.0;1.0;1.0;1.0;1.0;1.0;1.0;1.0;1.0;1.0 0
c p weight 164 1.0;1.0;1.0;1.0;1.0;1.0;1.0;1.0;1.0;1.0 0
c p weight -164 1.0;1.0;1.0;1.0;1.0;1.0;1.0;1.0;1.0;1.0 0
c p weight 165 1.0;1.0;1.0;1.0;1.0;1.0;1.0;1.0;1.0;1.0 0
c p weight -165 1.0;1.0;1.0;1.0;1.0;1.0;1.0;1.0;1.0;1.0 0
c p weight 166 1.0;1.0;1.0;1.0;1.0;1.0;1.0;1.0;1.0;1.0 0
c p weight -166 1.0;1.0;1.0;1.0;1.0;1.0;1.0;1.0;1.0;1.0 0
c p weight 167 1.0;1.0;1.0;1.0;1.0;1.0;1.0;1.0;1.0;1.0 0
c p weight -167 1.0;1.0;1.0;1.0;1.0;1.0;1.0;1.0;1.0;1.0 0
c p weight 168 1.0;1.0;1.0;1.0;1.0;1.0;1.0;1.0;1.0;1.0 0
c p weight -168 1.0;1.0;1.0;1.0;1.0;1.0;1.0;1.0;1.0;1.0 0
c p weight 169 1.0;1.0;1.0;1.0;1.0;1.0;1.0;1.0;1.0;1.0 0
c p weight -169 1.0;1.0;1.0;1.0;1.0;1.0;1.0;1.0;1.0;1.0 0
c p weight 170 1.0;1.0;1.0;1.0;1.0;1.0;1.0;1.0;1.0;1.0 0
c p weight -170 1.0;1.0;1.0;1.0;1.0;1.0;1.0;1.0;1.0;1.0 0
c p weight 171 1.0;1.0;1.0;1.0;1.0;1.0;1.0;1.0;1.0;1.0 0
c p weight -171 1.0;1.0;1.0;1.0;1.0;1.0;1.0;1.0;1.0;1.0 0
c p weight 172 1.0;1.0;1.0;1.0;1.0;1.0;1.0;1.0;1.0;1.0 0
c p weight -172 1.0;1.0;1.0;1.0;1.0;1.0;1.0;1.0;1.0;1.0 0
c p weight 173 1.0;1.0;1.0;1.0;1.0;1.0;1.0;1.0;1.0;1.0 0
c p weight -173 1.0;1.0;1.0;1.0;1.0;1.0;1.0;1.0;1.0;1.0 0
c p weight 174 1.0;1.0;1.0;1.0;1.0;1.0;1.0;1.0;1.0;1.0 0
c p weight -174 1.0;1.0;1.0;1.0;1.0;1.0;1.0;1.0;1.0;1.0 0
c p weight 175 1.0;1.0;1.0;1.0;1.0;1.0;1.0;1.0;1.0;1.0 0
c p weight -175 1.0;1.0;1.0;1.0;1.0;1.0;1.0;1.0;1.0;1.0 0
c p weight 176 1.0;1.0;1.0;1.0;1.0;1.0;1.0;1.0;1.0;1.0 0
c p weight -176 1.0;1.0;1.0;1.0;1.0;1.0;1.0;1.0;1.0;1.0 0
c p weight 177 1.0;1.0;1.0;1.0;1.0;1.0;1.0;1.0;1.0;1.0 0
c p weight -177 1.0;1.0;1.0;1.0;1.0;1.0;1.0;1.0;1.0;1.0 0
c p weight 178 1.0;1.0;1.0;1.0;1.0;1.0;1.0;1.0;1.0;1.0 0
c p weight -178 1.0;1.0;1.0;1.0;1.0;1.0;1.0;1.0;1.0;1.0 0
c p weight 179 1.0;1.0;1.0;1.0;1.0;1.0;1.0;1.0;1.0;1.0 0
c p weight -179 1.0;1.0;1.0;1.0;1.0;1.0;1.0;1.0;1.0;1.0 0
c p weight 180 1.0;1.0;1.0;1.0;1.0;1.0;1.0;1.0;1.0;1.0 0
c p weight -180 1.0;1.0;1.0;1.0;1.0;1.0;1.0;1.0;1.0;1.0 0
c p weight 181 1.0;1.0;1.0;1.0;1.0;1.0;1.0;1.0;1.0;1.0 0
c p weight -181 1.0;1.0;1.0;1.0;1.0;1.0;1.0;1.0;1.0;1.0 0
c p weight 182 1.0;1.0;1.0;1.0;1.0;1.0;1.0;1.0;1.0;1.0 0
c p weight -182 1.0;1.0;1.0;1.0;1.0;1.0;1.0;1.0;1.0;1.0 0
c p weight 183 1.0;1.0;1.0;1.0;1.0;1.0;1.0;1.0;1.0;1.0 0
c p weight -183 1.0;1.0;1.0;1.0;1.0;1.0;1.0;1.0;1.0;1.0 0
c p weight 184 1.0;1.0;1.0;1.0;1.0;1.0;1.0;1.0;1.0;1.0 0
c p weight -184 1.0;1.0;1.0;1.0;1.0;1.0;1.0;1.0;1.0;1.0 0
c p weight 185 1.0;1.0;1.0;1.0;1.0;1.0;1.0;1.0;1.0;1.0 0
c p weight -185 1.0;1.0;1.0;1.0;1.0;1.0;1.0;1.0;1.0;1.0 0
c p weight 186 1.0;1.0;1.0;1.0;1.0;1.0;1.0;1.0;1.0;1.0 0
c p weight -186 1.0;1.0;1.0;1.0;1.0;1.0;1.0;1.0;1.0;1.0 0
c p weight 187 1.0;1.0;1.0;1.0;1.0;1.0;1.0;1.0;1.0;1.0 0
c p weight -187 1.0;1.0;1.0;1.0;1.0;1.0;1.0;1.0;1.0;1.0 0
c p weight 188 1.0;1.0;1.0;1.0;1.0;1.0;1.0;1.0;1.0;1.0 0
c p weight -188 1.0;1.0;1.0;1.0;1.0;1.0;1.0;1.0;1.0;1.0 0
c p weight 189 1.0;1.0;1.0;1.0;1.0;1.0;1.0;1.0;1.0;1.0 0
c p weight -189 1.0;1.0;1.0;1.0;1.0;1.0;1.0;1.0;1.0;1.0 0
c p weight 190 1.0;1.0;1.0;1.0;1.0;1.0;1.0;1.0;1.0;1.0 0
c p weight -190 1.0;1.0;1.0;1.0;1.0;1.0;1.0;1.0;1.0;1.0 0
c p weight 191 1.0;1.0;1.0;1.0;1.0;1.0;1.0;1.0;1.0;1.0 0
c p weight -191 1.0;1.0;1.0;1.0;1.0;1.0;1.0;1.0;1.0;1.0 0
c p weight 192 1.0;1.0;1.0;1.0;1.0;1.0;1.0;1.0;1.0;1.0 0
c p weight -192 1.0;1.0;1.0;1.0;1.0;1.0;1.0;1.0;1.0;1.0 0
c p weight 193 1.0;1.0;1.0;1.0;1.0;1.0;1.0;1.0;1.0;1.0 0
c p weight -193 1.0;1.0;1.0;1.0;1.0;1.0;1.0;1.0;1.0;1.0 0
c p weight 194 1.0;1.0;1.0;1.0;1.0;1.0;1.0;1.0;1.0;1.0 0
c p weight -194 1.0;1.0;1.0;1.0;1.0;1.0;1.0;1.0;1.0;1.0 0
c p weight 195 1.0;1.0;1.0;1.0;1.0;1.0;1.0;1.0;1.0;1.0 0
c p weight -195 1.0;1.0;1.0;1.0;1.0;1.0;1.0;1.0;1.0;1.0 0
c p weight 196 1.0;1.0;1.0;1.0;1.0;1.0;1.0;1.0;1.0;1.0 0
c p weight -196 1.0;1.0;1.0;1.0;1.0;1.0;1.0;1.0;1.0;1.0 0
c p weight 197 1.0;1.0;1.0;1.0;1.0;1.0;1.0;1.0;1.0;1.0 0
c p weight -197 1.0;1.0;1.0;1.0;1.0;1.0;1.0;1.0;1.0;1.0 0
c p weight 198 1.0;1.0;1.0;1.0;1.0;1.0;1.0;1.0;1.0;1.0 0
c p weight -198 1.0;1.0;1.0;1.0;1.0;1.0;1.0;1.0;1.0;1.0 0
c p weight 199 1.0;1.0;1.0;1.0;1.0;1.0;1.0;1.0;1.0;1.0 0
c p weight -199 1.0;1.0;1.0;1.0;1.0;1.0;1.0;1.0;1.0;1.0 0
c p weight 200 1.0;1.0;1.0;1.0;1.0;1.0;1.0;1.0;1.0;1.0 0
c p weight -200 1.0;1.0;1.0;1.0;1.0;1.0;1.0;1.0;1.0;1.0 0
c p weight 201 1.0;1.0;1.0;1.0;1.0;1.0;1.0;1.0;1.0;1.0 0
c p weight -201 1.0;1.0;1.0;1.0;1.0;1.0;1.0;1.0;1.0;1.0 0
c p weight 202 1.0;1.0;1.0;1.0;1.0;1.0;1.0;1.0;1.0;1.0 0
c p weight -202 1.0;1.0;1.0;1.0;1.0;1.0;1.0;1.0;1.0;1.0 0
c p weight 203 1.0;1.0;1.0;1.0;1.0;1.0;1.0;1.0;1.0;1.0 0
c p weight -203 1.0;1.0;1.0;1.0;1.0;1.0;1.0;1.0;1.0;1.0 0
c p weight 204 1.0;1.0;1.0;1.0;1.0;1.0;1.0;1.0;1.0;1.0 0
c p weight -204 1.0;1.0;1.0;1.0;1.0;1.0;1.0;1.0;1.0;1.0 0
c p weight 205 1.0;1.0;1.0;1.0;1.0;1.0;1.0;1.0;1.0;1.0 0
c p weight -205 1.0;1.0;1.0;1.0;1.0;1.0;1.0;1.0;1.0;1.0 0
c p weight 206 1.0;1.0;1.0;1.0;1.0;1.0;1.0;1.0;1.0;1.0 0
c p weight -206 1.0;1.0;1.0;1.0;1.0;1.0;1.0;1.0;1.0;1.0 0
c p weight 207 1.0;1.0;1.0;1.0;1.0;1.0;1.0;1.0;1.0;1.0 0
c p weight -207 1.0;1.0;1.0;1.0;1.0;1.0;1.0;1.0;1.0;1.0 0
c p weight 208 1.0;1.0;1.0;1.0;1.0;1.0;1.0;1.0;1.0;1.0 0
c p weight -208 1.0;1.0;1.0;1.0;1.0;1.0;1.0;1.0;1.0;1.0 0
c p weight 209 1.0;1.0;1.0;1.0;1.0;1.0;1.0;1.0;1.0;1.0 0
c p weight -209 1.0;1.0;1.0;1.0;1.0;1.0;1.0;1.0;1.0;1.0 0
c p weight 210 1.0;1.0;1.0;1.0;1.0;1.0;1.0;1.0;1.0;1.0 0
c p weight -210 1.0;1.0;1.0;1.0;1.0;1.0;1.0;1.0;1.0;1.0 0
c p weight 211 1.0;1.0;1.0;1.0;1.0;1.0;1.0;1.0;1.0;1.0 0
c p weight -211 1.0;1.0;1.0;1.0;1.0;1.0;1.0;1.0;1.0;1.0 0
c p weight 212 1.0;1.0;1.0;1.0;1.0;1.0;1.0;1.0;1.0;1.0 0
c p weight -212 1.0;1.0;1.0;1.0;1.0;1.0;1.0;1.0;1.0;1.0 0
c p weight 213 1.0;1.0;1.0;1.0;1.0;1.0;1.0;1.0;1.0;1.0 0
c p weight -213 1.0;1.0;1.0;1.0;1.0;1.0;1.0;1.0;1.0;1.0 0
c p weight 214 1.0;1.0;1.0;1.0;1.0;1.0;1.0;1.0;1.0;1.0 0
c p weight -214 1.0;1.0;1.0;1.0;1.0;1.0;1.0;1.0;1.0;1.0 0
c p weight 215 1.0;1.0;1.0;1.0;1.0;1.0;1.0;1.0;1.0;1.0 0
c p weight -215 1.0;1.0;1.0;1.0;1.0;1.0;1.0;1.0;1.0;1.0 0
c p weight 216 1.0;1.0;1.0;1.0;1.0;1.0;1.0;1.0;1.0;1.0 0
c p weight -216 1.0;1.0;1.0;1.0;1.0;1.0;1.0;1.0;1.0;1.0 0
c p weight 217 1.0;1.0;1.0;1.0;1.0;1.0;1.0;1.0;1.0;1.0 0
c p weight -217 1.0;1.0;1.0;1.0;1.0;1.0;1.0;1.0;1.0;1.0 0
c p weight 218 1.0;1.0;1.0;1.0;1.0;1.0;1.0;1.0;1.0;1.0 0
c p weight -218 1.0;1.0;1.0;1.0;1.0;1.0;1.0;1.0;1.0;1.0 0
c p weight 219 1.0;1.0;1.0;1.0;1.0;1.0;1.0;1.0;1.0;1.0 0
c p weight -219 1.0;1.0;1.0;1.0;1.0;1.0;1.0;1.0;1.0;1.0 0
c p weight 220 1.0;1.0;1.0;1.0;1.0;1.0;1.0;1.0;1.0;1.0 0
c p weight -220 1.0;1.0;1.0;1.0;1.0;1.0;1.0;1.0;1.0;1.0 0
c p weight 221 1.0;1.0;1.0;1.0;1.0;1.0;1.0;1.0;1.0;1.0 0
c p weight -221 1.0;1.0;1.0;1.0;1.0;1.0;1.0;1.0;1.0;1.0 0
c p weight 222 1.0;1.0;1.0;1.0;1.0;1.0;1.0;1.0;1.0;1.0 0
c p weight -222 1.0;1.0;1.0;1.0;1.0;1.0;1.0;1.0;1.0;1.0 0
c p weight 223 1.0;1.0;1.0;1.0;1.0;1.0;1.0;1.0;1.0;1.0 0
c p weight -223 1.0;1.0;1.0;1.0;1.0;1.0;1.0;1.0;1.0;1.0 0
c p weight 224 1.0;1.0;1.0;1.0;1.0;1.0;1.0;1.0;1.0;1.0 0
c p weight -224 1.0;1.0;1.0;1.0;1.0;1.0;1.0;1.0;1.0;1.0 0
c p weight 225 1.0;1.0;1.0;1.0;1.0;1.0;1.0;1.0;1.0;1.0 0
c p weight -225 1.0;1.0;1.0;1.0;1.0;1.0;1.0;1.0;1.0;1.0 0
c p weight 226 1.0;1.0;1.0;1.0;1.0;1.0;1.0;1.0;1.0;1.0 0
c p weight -226 1.0;1.0;1.0;1.0;1.0;1.0;1.0;1.0;1.0;1.0 0
c p weight 227 1.0;1.0;1.0;1.0;1.0;1.0;1.0;1.0;1.0;1.0 0
c p weight -227 1.0;1.0;1.0;1.0;1.0;1.0;1.0;1.0;1.0;1.0 0
c p weight 228 1.0;1.0;1.0;1.0;1.0;1.0;1.0;1.0;1.0;1.0 0
c p weight -228 1.0;1.0;1.0;1.0;1.0;1.0;1.0;1.0;1.0;1.0 0
c p weight 229 1.0;1.0;1.0;1.0;1.0;1.0;1.0;1.0;1.0;1.0 0
c p weight -229 1.0;1.0;1.0;1.0;1.0;1.0;1.0;1.0;1.0;1.0 0
c p weight 230 1.0;1.0;1.0;1.0;1.0;1.0;1.0;1.0;1.0;1.0 0
c p weight -230 1.0;1.0;1.0;1.0;1.0;1.0;1.0;1.0;1.0;1.0 0
c p weight 231 1.0;1.0;1.0;1.0;1.0;1.0;1.0;1.0;1.0;1.0 0
c p weight -231 1.0;1.0;1.0;1.0;1.0;1.0;1.0;1.0;1.0;1.0 0
c p weight 232 1.0;1.0;1.0;1.0;1.0;1.0;1.0;1.0;1.0;1.0 0
c p weight -232 1.0;1.0;1.0;1.0;1.0;1.0;1.0;1.0;1.0;1.0 0
c p weight 233 1.0;1.0;1.0;1.0;1.0;1.0;1.0;1.0;1.0;1.0 0
c p weight -233 1.0;1.0;1.0;1.0;1.0;1.0;1.0;1.0;1.0;1.0 0
c p weight 234 1.0;1.0;1.0;1.0;1.0;1.0;1.0;1.0;1.0;1.0 0
c p weight -234 1.0;1.0;1.0;1.0;1.0;1.0;1.0;1.0;1.0;1.0 0
c p weight 235 1.0;1.0;1.0;1.0;1.0;1.0;1.0;1.0;1.0;1.0 0
c p weight -235 1.0;1.0;1.0;1.0;1.0;1.0;1.0;1.0;1.0;1.0 0
c p weight 236 1.0;1.0;1.0;1.0;1.0;1.0;1.0;1.0;1.0;1.0 0
c p weight -236 1.0;1.0;1.0;1.0;1.0;1.0;1.0;1.0;1.0;1.0 0
c p weight 237 1.0;1.0;1.0;1.0;1.0;1.0;1.0;1.0;1.0;1.0 0
c p weight -237 1.0;1.0;1.0;1.0;1.0;1.0;1.0;1.0;1.0;1.0 0
c p weight 238 1.0;1.0;1.0;1.0;1.0;1.0;1.0;1.0;1.0;1.0 0
c p weight -238 1.0;1.0;1.0;1.0;1.0;1.0;1.0;1.0;1.0;1.0 0
c p weight 239 1.0;1.0;1.0;1.0;1.0;1.0;1.0;1.0;1.0;1.0 0
c p weight -239 1.0;1.0;1.0;1.0;1.0;1.0;1.0;1.0;1.0;1.0 0
c p weight 240 1.0;1.0;1.0;1.0;1.0;1.0;1.0;1.0;1.0;1.0 0
c p weight -240 1.0;1.0;1.0;1.0;1.0;1.0;1.0;1.0;1.0;1.0 0
c p weight 241 1.0;1.0;1.0;1.0;1.0;1.0;1.0;1.0;1.0;1.0 0
c p weight -241 1.0;1.0;1.0;1.0;1.0;1.0;1.0;1.0;1.0;1.0 0
c p weight 242 1.0;1.0;1.0;1.0;1.0;1.0;1.0;1.0;1.0;1.0 0
c p weight -242 1.0;1.0;1.0;1.0;1.0;1.0;1.0;1.0;1.0;1.0 0
c p weight 243 1.0;1.0;1.0;1.0;1.0;1.0;1.0;1.0;1.0;1.0 0
c p weight -243 1.0;1.0;1.0;1.0;1.0;1.0;1.0;1.0;1.0;1.0 0
c p weight 244 1.0;1.0;1.0;1.0;1.0;1.0;1.0;1.0;1.0;1.0 0
c p weight -244 1.0;1.0;1.0;1.0;1.0;1.0;1.0;1.0;1.0;1.0 0
c p weight 245 1.0;1.0;1.0;1.0;1.0;1.0;1.0;1.0;1.0;1.0 0
c p weight -245 1.0;1.0;1.0;1.0;1.0;1.0;1.0;1.0;1.0;1.0 0
c p weight 246 1.0;1.0;1.0;1.0;1.0;1.0;1.0;1.0;1.0;1.0 0
c p weight -246 1.0;1.0;1.0;1.0;1.0;1.0;1.0;1.0;1.0;1.0 0
c p weight 247 1.0;1.0;1.0;1.0;1.0;1.0;1.0;1.0;1.0;1.0 0
c p weight -247 1.0;1.0;1.0;1.0;1.0;1.0;1.0;1.0;1.0;1.0 0
c p weight 248 1.0;1.0;1.0;1.0;1.0;1.0;1.0;1.0;1.0;1.0 0
c p weight -248 1.0;1.0;1.0;1.0;1.0;1.0;1.0;1.0;1.0;1.0 0
c p weight 249 1.0;1.0;1.0;1.0;1.0;1.0;1.0;1.0;1.0;1.0 0
c p weight -249 1.0;1.0;1.0;1.0;1.0;1.0;1.0;1.0;1.0;1.0 0
c p weight 250 1.0;1.0;1.0;1.0;1.0;1.0;1.0;1.0;1.0;1.0 0
c p weight -250 1.0;1.0;1.0;1.0;1.0;1.0;1.0;1.0;1.0;1.0 0
c p weight 251 1.0;1.0;1.0;1.0;1.0;1.0;1.0;1.0;1.0;1.0 0
c p weight -251 1.0;1.0;1.0;1.0;1.0;1.0;1.0;1.0;1.0;1.0 0
c p weight 252 1.0;1.0;1.0;1.0;1.0;1.0;1.0;1.0;1.0;1.0 0
c p weight -252 1.0;1.0;1.0;1.0;1.0;1.0;1.0;1.0;1.0;1.0 0
c p weight 253 1.0;1.0;1.0;1.0;1.0;1.0;1.0;1.0;1.0;1.0 0
c p weight -253 1.0;1.0;1.0;1.0;1.0;1.0;1.0;1.0;1.0;1.0 0
c p weight 254 1.0;1.0;1.0;1.0;1.0;1.0;1.0;1.0;1.0;1.0 0
c p weight -254 1.0;1.0;1.0;1.0;1.0;1.0;1.0;1.0;1.0;1.0 0
c p weight 255 1.0;1.0;1.0;1.0;1.0;1.0;1.0;1.0;1.0;1.0 0
c p weight -255 1.0;1.0;1.0;1.0;1.0;1.0;1.0;1.0;1.0;1.0 0
c p weight 256 1.0;1.0;1.0;1.0;1.0;1.0;1.0;1.0;1.0;1.0 0
c p weight -256 1.0;1.0;1.0;1.0;1.0;1.0;1.0;1.0;1.0;1.0 0
c p weight 257 1.0;1.0;1.0;1.0;1.0;1.0;1.0;1.0;1.0;1.0 0
c p weight -257 1.0;1.0;1.0;1.0;1.0;1.0;1.0;1.0;1.0;1.0 0
c p weight 258 1.0;1.0;1.0;1.0;1.0;1.0;1.0;1.0;1.0;1.0 0
c p weight -258 1.0;1.0;1.0;1.0;1.0;1.0;1.0;1.0;1.0;1.0 0
c p weight 259 1.0;1.0;1.0;1.0;1.0;1.0;1.0;1.0;1.0;1.0 0
c p weight -259 1.0;1.0;1.0;1.0;1.0;1.0;1.0;1.0;1.0;1.0 0
c p weight 260 1.0;1.0;1.0;1.0;1.0;1.0;1.0;1.0;1.0;1.0 0
c p weight -260 1.0;1.0;1.0;1.0;1.0;1.0;1.0;1.0;1.0;1.0 0
c p weight 261 1.0;1.0;1.0;1.0;1.0;1.0;1.0;1.0;1.0;1.0 0
c p weight -261 1.0;1.0;1.0;1.0;1.0;1.0;1.0;1.0;1.0;1.0 0
c p weight 262 1.0;1.0;1.0;1.0;1.0;1.0;1.0;1.0;1.0;1.0 0
c p weight -262 1.0;1.0;1.0;1.0;1.0;1.0;1.0;1.0;1.0;1.0 0
c p weight 263 1.0;1.0;1.0;1.0;1.0;1.0;1.0;1.0;1.0;1.0 0
c p weight -263 1.0;1.0;1.0;1.0;1.0;1.0;1.0;1.0;1.0;1.0 0
c p weight 264 1.0;1.0;1.0;1.0;1.0;1.0;1.0;1.0;1.0;1.0 0
c p weight -264 1.0;1.0;1.0;1.0;1.0;1.0;1.0;1.0;1.0;1.0 0
c p weight 265 1.0;1.0;1.0;1.0;1.0;1.0;1.0;1.0;1.0;1.0 0
c p weight -265 1.0;1.0;1.0;1.0;1.0;1.0;1.0;1.0;1.0;1.0 0
c p weight 266 1.0;1.0;1.0;1.0;1.0;1.0;1.0;1.0;1.0;1.0 0
c p weight -266 1.0;1.0;1.0;1.0;1.0;1.0;1.0;1.0;1.0;1.0 0
c p weight 267 1.0;1.0;1.0;1.0;1.0;1.0;1.0;1.0;1.0;1.0 0
c p weight -267 1.0;1.0;1.0;1.0;1.0;1.0;1.0;1.0;1.0;1.0 0
c p weight 268 1.0;1.0;1.0;1.0;1.0;1.0;1.0;1.0;1.0;1.0 0
c p weight -268 1.0;1.0;1.0;1.0;1.0;1.0;1.0;1.0;1.0;1.0 0
c p weight 269 1.0;1.0;1.0;1.0;1.0;1.0;1.0;1.0;1.0;1.0 0
c p weight -269 1.0;1.0;1.0;1.0;1.0;1.0;1.0;1.0;1.0;1.0 0
c p weight 270 1.0;1.0;1.0;1.0;1.0;1.0;1.0;1.0;1.0;1.0 0
c p weight -270 1.0;1.0;1.0;1.0;1.0;1.0;1.0;1.0;1.0;1.0 0
c p semirings aspmc.semirings.probabilistic 0
c p quantify 1 2 3 4 5 6 7 8 9 10 11 12 13 14 15 16 17 18 19 20 21 22 23 24 25 26 27 28 29 30 31 32 33 34 35 36 37 38 39 40 41 42 43 44 45 46 47 48 49 50 51 52 53 54 55 56 57 58 59 60 61 62 63 64 65 66 67 68 69 70 71 72 73 74 75 76 77 78 79 80 81 82 83 84 85 86 87 88 89 90 91 92 93 94 95 96 97 98 99 100 101 102 103 104 105 106 107 108 109 110 111 112 113 114 115 116 117 118 119 120 121 122 123 124 125 126 127 128 129 130 131 132 133 134 135 136 137 138 139 140 141 142 143 144 145 146 147 148 149 150 151 152 153 154 155 156 157 158 159 160 161 162 163 164 165 166 167 168 169 170 171 172 173 174 175 176 177 178 179 180 181 182 183 184 185 186 187 188 189 190 191 192 193 194 195 196 197 198 199 200 201 202 203 204 205 206 207 208 209 210 211 212 213 214 215 216 217 218 219 220 221 222 223 224 225 226 227 228 229 230 231 232 233 234 235 236 237 238 239 240 241 242 243 244 245 246 247 248 249 250 251 252 253 254 255 256 257 258 259 260 261 262 263 264 265 266 267 268 269 270 0
c p auxilliary 1 2 3 4 5 6 7 8 9 10 11 12 13 14 15 16 17 18 19 20 21 22 23 24 25 26 27 28 29 30 31 32 33 34 35 36 37 38 87 88 89 90 91 92 93 94 95 96 97 98 99 100 101 102 103 104 105 106 107 108 109 110 111 112 113 114 115 116 117 118 119 120 121 122 123 124 125 126 127 128 129 130 131 132 133 134 135 136 137 138 139 140 141 142 143 144 145 146 147 148 149 150 151 152 153 154 155 156 157 158 159 160 161 162 163 164 165 166 167 168 169 170 171 172 173 174 175 176 177 178 179 180 181 182 183 184 185 186 187 188 189 190 191 192 193 194 195 196 197 198 199 200 201 202 203 204 205 206 207 208 209 210 211 212 213 214 215 216 217 218 219 220 221 222 223 224 225 226 227 228 229 230 231 232 233 234 235 236 237 238 239 240 241 242 243 244 245 246 247 248 249 250 251 252 253 254 255 256 257 258 259 260 261 262 263 264 265 266 267 268 269 270 0
